QF_S/20230329-automatark-lu/instance07756.smt2
(set-info :smt-lib-version 2.6)
(set-logic QF_S)
(set-info :source |
Generated by: Murphy Berzish, Mitja Kulczynski, Federico Mora, Florin Manea, Joel Day, Dirk Nowotka, Vijay Ganesh, Zhengyang Lu
Generated on: 2020-10-01
Description: Translated from a collection of real-world regex queries, AutomataArk, collected by Loris D’Antoni and Fang Wang: https://github.com/lorisdanto/automatark
Application: Evaluate solvers on real-world regex queries
Target solver: Z3str3RE, CVC4, OSTRICH, Z3seq, Z3str3, Z3-Trau
Publications: Berzish, M., Kulczynski, M., Mora, F., Manea, F., Day, J. D., Nowotka, D., & Ganesh, V. (2021, July). An SMT solver for regular expressions and linear arithmetic over string length. In CAV 2021.
|)
(set-info :license "https://creativecommons.org/licenses/by/4.0/")
(set-info :category "industrial")
(set-info :status unsat)

(declare-const X String)
(assert (str.in_re X (str.to_re "}{Trojan:backtrust.comHost:pjpoptwql/rlnj\u{a}")))
(assert (not (str.in_re X (re.++ (str.to_re "/filename=") (re.* (re.comp (str.to_re "\u{a}"))) (str.to_re ".qt/i\u{a}")))))
(assert (str.in_re X (re.++ (str.to_re "//evil/services/bid_register.php?BID=") ((_ re.loop 6 6) (re.union (re.range "A" "Z") (re.range "a" "z"))) (str.to_re "&IP=") ((_ re.loop 1 3) (re.range "0" "9")) (str.to_re ".") ((_ re.loop 1 3) (re.range "0" "9")) (str.to_re ".") ((_ re.loop 1 3) (re.range "0" "9")) (str.to_re ".") ((_ re.loop 1 3) (re.range "0" "9")) (str.to_re "&cipher=") ((_ re.loop 9 9) (re.union (re.range "A" "Z") (re.range "a" "z"))) (str.to_re "/smiU\u{a}"))))
(assert (not (str.in_re X (re.union (re.++ (str.to_re "20") ((_ re.loop 2 2) (re.range "0" "9")) (str.to_re "/") (re.union (re.++ (str.to_re "0") (re.range "0" "9")) (re.++ (str.to_re "1") (re.range "0" "2"))) (str.to_re "/") (re.union (re.++ (re.range "0" "2") (re.range "0" "9")) (re.++ (str.to_re "3") (re.range "0" "1")))) (re.++ (str.to_re "\u{a}20") ((_ re.loop 2 2) (re.range "0" "9")) (str.to_re "/") (re.union (re.++ (str.to_re "0") (re.range "0" "9")) (re.++ (str.to_re "1") (re.range "0" "2"))) (str.to_re "/") (re.union (re.++ (re.range "0" "2") (re.range "0" "9")) (re.++ (str.to_re "3") (re.range "0" "1"))) (re.union (str.to_re " ") (str.to_re "\u{9}") (str.to_re "\u{a}") (str.to_re "\u{c}") (str.to_re "\u{d}")) (re.union (re.++ (re.range "0" "1") (re.range "0" "9")) (re.++ (str.to_re "2") (re.range "0" "3"))) (str.to_re ":") (re.range "0" "5") (re.range "0" "9") (str.to_re ":") (re.range "0" "5") (re.range "0" "9"))))))
(assert (not (str.in_re X (re.++ (str.to_re "//se/") ((_ re.loop 100 200) (re.union (re.range "a" "f") (re.range "0" "9"))) (str.to_re "/") ((_ re.loop 6 9) (re.union (re.range "a" "f") (re.range "0" "9"))) (str.to_re "/") ((_ re.loop 4 200) (re.union (re.range "A" "Z") (re.range "0" "9") (str.to_re "_"))) (str.to_re ".com/Ui\u{a}")))))
(check-sat)

(exit)
